#######################################
### Exact MIP solver for the HHCRSP ###
#######################################
-- Instance file: new-instances/HHCRSP_75_15_7_1.6_R_RC.txt
-- Max threads: 4
-- Time limit: 999999 seconds
-- Use initial solution: No
Trivial flow violations prevented generating 18740 variables.
Model exported.
Version identifier: 20.1.0.0 | 2020-11-10 | 9bedb6d68
CPXPARAM_Threads                                 4
CPXPARAM_TimeLimit                               999999
Parallel mode: deterministic, using up to 4 threads for concurrent optimization:
 * Starting dual Simplex on 1 thread...
 * Starting Barrier on 3 threads...
Tried aggregator 1 time.
LP Presolve eliminated 2712 rows and 631 columns.
Reduced LP has 18326 rows, 17675 columns, and 173934 nonzeros.
Presolve time = 0.08 sec. (48.57 ticks)
Symmetry aggregator did 14378 additional substitutions.

Iteration log . . .
Iteration:     1   Dual objective     =             0.000000

Dual crossover.
  Dual:  Fixing 128 variables.
      127 DMoves:  Infeasibility  2.14828248e-14  Objective  1.67000000e+02
        0 DMoves:  Infeasibility  1.60427320e-14  Objective  1.67000000e+02
  Dual:  Pushed 9, exchanged 119.
  Primal:  Fixing 44 variables.
       43 PMoves:  Infeasibility  0.00000000e+00  Objective  1.67000000e+02
        0 PMoves:  Infeasibility  0.00000000e+00  Objective  1.67000000e+02
  Primal:  Pushed 7, exchanged 37.

Dual simplex solved model.


Solution status from MIP model:
-- Processing time: 0.143 sec.
-- Memory used: 81.0049 MB
-- Best bound: inf
-- Obj value: 167
-- Gap: inf%
-- Total distance: 501
-- Total tardiness: 0
-- Largest tardiness: 0
